<?xml version = "1.0" encoding="UTF-8" standalone="yes"?>
<CPLEXSolution version="1.2">
 <header
   problemName=""
   solutionName="incumbent"
   solutionIndex="-1"
   objectiveValue="80"
   solutionTypeValue="3"
   solutionTypeString="primal"
   solutionStatusValue="101"
   solutionStatusString="integer optimal solution"
   solutionMethodString="mip"
   primalFeasible="1"
   dualFeasible="1"
   MIPNodes="0"
   MIPIterations="6"
   writeLevel="1"/>
 <quality
   epInt="1.0000000000000001e-05"
   epRHS="9.9999999999999995e-07"
   maxIntInfeas="0"
   maxPrimalInfeas="0"
   maxX="3"
   maxSlack="3"/>
 <linearConstraints>
  <constraint index="0" slack="0"/>
  <constraint index="1" slack="0"/>
  <constraint index="2" slack="0"/>
  <constraint index="3" slack="0"/>
  <constraint index="4" slack="0"/>
  <constraint index="5" slack="0"/>
  <constraint index="6" slack="0"/>
  <constraint index="7" slack="0"/>
  <constraint index="8" slack="0"/>
  <constraint index="9" slack="0"/>
  <constraint index="10" slack="0"/>
  <constraint index="11" slack="0"/>
  <constraint index="12" slack="0"/>
  <constraint index="13" slack="0"/>
  <constraint index="14" slack="3"/>
  <constraint index="15" slack="0"/>
  <constraint index="16" slack="1"/>
  <constraint index="17" slack="0"/>
  <constraint index="18" slack="3"/>
  <constraint index="19" slack="0"/>
  <constraint index="20" slack="0"/>
  <constraint index="21" slack="2"/>
  <constraint index="22" slack="3"/>
 </linearConstraints>
 <variables>
  <variable name="y_3_3" index="0" value="0"/>
  <variable name="y_3_3" index="1" value="3"/>
  <variable name="y_3_3" index="2" value="0"/>
  <variable name="y_3_3" index="3" value="0"/>
  <variable name="y_3_3" index="4" value="0"/>
  <variable name="y_3_3" index="5" value="0"/>
  <variable name="y_3_3" index="6" value="0"/>
  <variable name="y_3_3" index="7" value="2"/>
  <variable name="y_3_3" index="8" value="0"/>
  <variable name="y_3_3" index="9" value="0"/>
  <variable name="y_3_3" index="10" value="0"/>
  <variable name="y_3_3" index="11" value="0"/>
  <variable name="y_3_3" index="12" value="0"/>
  <variable name="y_3_3" index="13" value="0"/>
  <variable name="y_3_3" index="14" value="1"/>
  <variable name="y_3_3" index="15" value="0"/>
  <variable name="y_3_3" index="16" value="0"/>
  <variable name="y_3_3" index="17" value="1"/>
  <variable name="y_3_3" index="18" value="0"/>
  <variable name="y_3_3" index="19" value="0"/>
  <variable name="y_3_3" index="20" value="0"/>
  <variable name="y_3_3" index="21" value="1"/>
  <variable name="y_3_3" index="22" value="0"/>
  <variable name="y_3_3" index="23" value="1"/>
  <variable name="y_3_3" index="24" value="1"/>
  <variable name="y_3_3" index="25" value="0"/>
  <variable name="y_3_3" index="26" value="1"/>
  <variable name="y_3_3" index="27" value="0"/>
  <variable name="y_3_3" index="28" value="0"/>
  <variable name="y_3_3" index="29" value="0"/>
  <variable name="y_3_3" index="30" value="1"/>
  <variable name="y_3_3" index="31" value="1"/>
 </variables>
</CPLEXSolution>
